units  real
timestep  1
dimension  3
atom_style  full
boundary  p p p
neighbor  2.0 bin
neigh_modify  every 1 delay 0 check yes
bond_style  harmonic
angle_style  harmonic
dihedral_style  opls
read_data  lammps.data
  orthogonal box = (0 0 0) to (22 26 28)
  1 by 2 by 2 MPI processor grid
  reading atoms ...
  144 atoms
  scanning bonds ...
  4 = max bonds/atom
  scanning angles ...
  6 = max angles/atom
  scanning dihedrals ...
  9 = max dihedrals/atom
  reading bonds ...
  142 bonds
  reading angles ...
  260 angles
  reading dihedrals ...
  282 dihedrals
  4 = max # of 1-2 neighbors
  6 = max # of 1-3 neighbors
  12 = max # of 1-4 neighbors
  14 = max # of special neighbors
pair_style  buck/coul/long 15.0
pair_coeff 1 1 2649.6 0.2674 27.22
pair_coeff 1 2 4320.0 0.2928 137.6
pair_coeff 1 3 14176.0 0.2563 104.0
pair_coeff 2 2 14976.0 0.3236 637.6
pair_coeff 2 3 33702.4 0.2796 503.0
pair_coeff 3 3 75844.8 0.2461 396.9
kspace_style  ewald 1.0e-5
dump peodump all custom 1000 peo.dump id type x y z ix iy iz mol
dump traj all dcd 1000 peo.dcd
thermo_style  custom step temp press vol density pe ke etotal enthalpy fmax fnorm
thermo  100
group  CH type 1 2
124 atoms in group CH
fix CHbonds CH shake 0.0001 20 0 b 2
  0 = # of size 2 clusters
  36 = # of size 3 clusters
  4 = # of size 4 clusters
  0 = # of frozen angles
fix NPT all npt temp 350 350 100.0 iso 1.0 1.0 1500.0
run  1000
Ewald initialization ...
WARNING: Using 12-bit tables for long-range coulomb (../kspace.cpp:321)
  G vector (1/distance) = 0.139029
  estimated absolute RMS force accuracy = 0.0033405
  estimated relative force accuracy = 1.00598e-05
  KSpace vectors: actual max1d max3d = 81 3 171
                  kxmax kymax kzmax  = 3 3 3
Neighbor list info ...
  update every 1 steps, delay 0 steps, check yes
  max neighbors/atom: 2000, page size: 100000
  master list distance cutoff = 17
  ghost atom cutoff = 17
  binsize = 8.5, bins = 3 4 4
  1 neighbor lists, perpetual/occasional/extra = 1 0 0
  (1) pair buck/coul/long, perpetual
      attributes: half, newton on
      pair build: half/bin/newton
      stencil: half/bin/3d/newton
      bin: standard
Per MPI rank memory allocation (min/avg/max) = 19.12 | 19.21 | 19.49 Mbytes
Step Temp Press Volume Density PotEng KinEng TotEng Enthalpy Fmax Fnorm 
       0            0   -2041.5231        16016  0.091765404    2383.0485            0    2383.0485    1906.1958    193.78752    955.28196 
     100    1765.5965    154.41317    15687.855  0.093684875    579.66367    605.23441    1184.8981    1220.2265     131.7775    665.45553 
     200    769.44842    235.05978     15288.67   0.09613097    280.34691    263.76165    544.10856    596.51973    109.31916    466.98715 
     300    487.71132    670.10378    14961.258  0.098234698    151.61905     167.1841    318.80316    465.01619    94.380991    401.85178 
     400     335.0761   -350.80004    14702.873  0.099961056    109.27719    114.86179    224.13898    148.91822    55.206567    271.63182 
     500    297.37369   -779.61979    14431.464     0.101841    88.307572    101.93767    190.24524    26.160144    69.217313    278.96329 
     600    264.17866    590.62156      14161.3   0.10378389    106.73292    90.558638    197.29156    319.27146    62.426814    284.41915 
     700    413.58896   -477.67842    13992.921   0.10503273    97.062806    141.77546    238.83827    141.35729    63.577282     321.3811 
     800    450.83669    224.76415    13829.216   0.10627607     99.16976    154.54373    253.71349    299.04503     56.83429    311.28759 
     900    330.58911    256.52659    13677.286   0.10745661    106.70341    113.32368     220.0271    271.19625    61.442299    292.88875 
    1000    315.75299   -197.87376    13556.231   0.10841618    76.318517    108.23797    184.55648     145.4361    59.564943    282.97662 
Loop time of 0.300714 on 4 procs for 1000 steps with 144 atoms

Performance: 287.316 ns/day, 0.084 hours/ns, 3325.416 timesteps/s
99.2% CPU use with 4 MPI tasks x no OpenMP threads

MPI task timing breakdown:
Section |  min time  |  avg time  |  max time  |%varavg| %total
---------------------------------------------------------------
Pair    | 0.083996   | 0.11261    | 0.13762    |   7.4 | 37.45
Bond    | 0.020946   | 0.027725   | 0.037204   |   3.6 |  9.22
Kspace  | 0.054316   | 0.081825   | 0.11148    |   9.0 | 27.21
Neigh   | 0.0074708  | 0.0074729  | 0.0074747  |   0.0 |  2.49
Comm    | 0.031419   | 0.038148   | 0.043675   |   2.3 | 12.69
Output  | 0.00036097 | 0.0003919  | 0.00048399 |   0.0 |  0.13
Modify  | 0.029077   | 0.029171   | 0.029297   |   0.1 |  9.70
Other   |            | 0.003367   |            |       |  1.12

Nlocal:    36 ave 50 max 24 min
Histogram: 1 0 1 0 0 0 1 0 0 1
Nghost:    1287.75 ave 1348 max 1235 min
Histogram: 2 0 0 0 0 0 0 0 1 1
Neighs:    3725.25 ave 4812 max 2578 min
Histogram: 1 1 0 0 0 0 0 0 0 2

Total # of neighbors = 14901
Ave neighs/atom = 103.479
Ave special neighs/atom = 9.5
Neighbor list builds = 36
Dangerous builds = 0
Total wall time: 0:00:00
